max_width = 37;
n_blocks = 27;
width = [12, 5, 5, 5, 5, 5, 4, 4, 4, 4, 4, 4, 4, 3, 3, 3, 3, 3, 3, 3, 3, 3, 3, 3, 3, 3, 3];
height = [37, 14, 10, 6, 4, 3, 24, 22, 10, 6, 5, 4, 3, 21, 18, 17, 14, 13, 12, 11, 9, 8, 7, 6, 5, 4, 3];
